452,91
778,336
829,429
1023,517
841,487
829,429
894,298
778,336
740,397
681,466
463,564
452,721
808,533
740,397
690,347
385,110
296,345
326,462
681,46
593,285
463,564
148,490
296,345
452,91
681,46
822,212
1066,345
1041,406
822,212
681,46
732,81
690,347
482,342
261,406
